140	175	209	81	72	124	45	100000	195	175	86	83	175	71219	0	89	209	209	287	175	100000	30	22	132	209	19	209209	89	0	209	209	209	145	100000	94	165	195	209	171	20981	209	209	0	22	23	67	100000	209	209	165	12	209	11672	209	209	22	0	23	67	100000	263	209	165	12	209	100124	287	209	23	23	0	170	100000	287	209	175	18	287	23245	175	145	67	67	170	0	100000	219	175	120	80	209	130100000	100000	100000	100000	100000	100000	100000	0	100000	100000	100000	100000	100000	100000195	30	94	209	263	287	219	100000	0	55	175	209	86	209175	22	165	209	209	209	175	100000	55	0	165	195	37	24186	132	195	165	165	175	120	100000	175	165	0	185	146	15583	209	209	12	12	18	80	100000	209	195	185	0	263	144175	19	171	209	209	287	209	100000	86	37	146	263	0	26371	209	209	116	100	232	130	100000	209	241	155	144	263	0																																																																																																																																																																																																																																